10	6	3.5
2 4 1 1 3 2 5 8 6 3 4 1 8 2 6 4 8 6 9
2 4 2 9 3 5 4 5 6 3 3 1 8 3 4 6 5
2 4 2 6 3 9 4 8 5 2 3 1 5 2 1 3 5
2 2 2 2 3 6 1 3 8
2 4 1 6 2 7 3 7 4 3 3 3 3 4 4 6 8
2 3 4 2 5 5 6 2 6 1 3 2 5 3 2 4 1 5 8 6 8
2 6 1 8 2 3 3 3 4 1 5 8 6 7 2 2 6 6 4
2 1 5 2 6 1 8 2 5 3 6 4 4 5 9 6 2
2 5 1 4 2 2 3 9 5 2 6 1 2 2 8 5 9
2 4 1 9 2 9 4 8 5 2 3 2 3 3 1 5 2
